Version identifier: 20.1.0.0 | 2020-11-10 | 9bedb6d68
Tried aggregator 2 times.
MIP Presolve eliminated 1810 rows and 922 columns.
MIP Presolve modified 4762 coefficients.
Aggregator did 198 substitutions.
Reduced MIP has 2801 rows, 2195 columns, and 9202 nonzeros.
Reduced MIP has 439 binaries, 1756 generals, 0 SOSs, and 0 indicators.
Presolve time = 0.03 sec. (10.70 ticks)
Probing fixed 60 vars, tightened 711 bounds.
Probing time = 0.00 sec. (2.04 ticks)
Tried aggregator 2 times.
Detecting symmetries...
MIP Presolve eliminated 1176 rows and 72 columns.
MIP Presolve modified 199 coefficients.
Aggregator did 10 substitutions.
Reduced MIP has 1615 rows, 2113 columns, and 5278 nonzeros.
Reduced MIP has 671 binaries, 1442 generals, 0 SOSs, and 0 indicators.
Presolve time = 0.02 sec. (7.40 ticks)
Probing time = 0.00 sec. (0.42 ticks)
Clique table members: 5.
MIP emphasis: balance optimality and feasibility.
MIP search method: dynamic search.
Parallel mode: deterministic, using up to 24 threads.
Root relaxation solution time = 0.03 sec. (5.50 ticks)

        Nodes                                         Cuts/
   Node  Left     Objective  IInf  Best Integer    Best Bound    ItCnt     Gap

      0     0        0.0000    68                      0.0000      489         
*     0+    0                           22.0000        0.0000           100.00%
*     0+    0                           18.0000        0.0000           100.00%
      0     0        0.0000    93       18.0000      Cuts: 35      547  100.00%
      0     0        0.0000    62       18.0000      Cuts: 27      581  100.00%
      0     0        0.0000    29       18.0000      Cuts: 80      937  100.00%
      0     0        0.1429   165       18.0000      Cuts: 75     1065   99.21%
      0     0        0.1429   218       18.0000      Cuts: 79     1192   99.21%
*     0+    0                           15.0000        0.1429            99.05%
      0     2        0.1429    58       15.0000        7.0000     1192   53.33%
Elapsed time = 1.13 sec. (250.09 ticks, tree = 0.02 MB, solutions = 3)
*    62+    7                           13.0000        7.0000            46.15%
*    87+   21                           12.0000        7.0000            41.67%

Implied bound cuts applied:  138
Flow cuts applied:  2
Mixed integer rounding cuts applied:  17
Zero-half cuts applied:  71
Lift and project cuts applied:  2
Gomory fractional cuts applied:  11

Root node processing (before b&c):
  Real time             =    0.92 sec. (249.45 ticks)
Parallel b&c, 24 threads:
  Real time             =    1.26 sec. (79.09 ticks)
  Sync time (average)   =    0.98 sec.
  Wait time (average)   =    0.00 sec.
                          ------------
Total (root+branch&cut) =    2.18 sec. (328.54 ticks)

Solution status = Optimal
Solution LB = 12
Solution UB = 12
Runtime = 2.18696 seconds
	Command being timed: "/home/min/git_repos/CS598MEBProject/CNT-ILP/build/cnt -s 2 ./output/k8_n30/simC_c1_k8_n30_u3_s2_del02.input-left.cnp"
	User time (seconds): 31.86
	System time (seconds): 0.29
	Percent of CPU this job got: 1430%
	Elapsed (wall clock) time (h:mm:ss or m:ss): 0:02.24
	Average shared text size (kbytes): 0
	Average unshared data size (kbytes): 0
	Average stack size (kbytes): 0
	Average total size (kbytes): 0
	Maximum resident set size (kbytes): 156588
	Average resident set size (kbytes): 0
	Major (requiring I/O) page faults: 0
	Minor (reclaiming a frame) page faults: 59666
	Voluntary context switches: 10192
	Involuntary context switches: 5258
	Swaps: 0
	File system inputs: 0
	File system outputs: 24
	Socket messages sent: 0
	Socket messages received: 0
	Signals delivered: 0
	Page size (bytes): 4096
	Exit status: 0
